100
    1     4     4
    2    46    46
    3    48    48
    4    19    19
    5    54    54
    6    20    20
    7    63    63
    8   100   100
    9    28    28
   10     6     6
   11    94    94
   12    41    41
   13     1     1
   14    70    70
   15     8     8
   16    60    60
   17    69    69
   18    95    95
   19    70    70
   20    83    83
   21     8     8
   22    95    95
   23    83    83
   24    95    95
   25    96    96
   26    63    63
   27    16    16
   28    42    42
   29    61    61
   30    71    71
   31     1     1
   32    52    52
   33    81    81
   34    58    58
   35    96    96
   36    82    82
   37    97    97
   38    87    87
   39    58    58
   40     6     6
   41    37    37
   42    70    70
   43    44    44
   44    55    55
   45    56    56
   46    52    52
   47    31    31
   48    64    64
   49    65    65
   50    93    93
   51    32    32
   52    63    63
   53    70    70
   54    88    88
   55    36    36
   56    20    20
   57    10    10
   58    82    82
   59    71    71
   60    61    61
   61    98    98
   62    93    93
   63   100   100
   64    96    96
   65    40    40
   66    72    72
   67    17    17
   68    47    47
   69    44    44
   70    68    68
   71     9     9
   72    85    85
   73    48    48
   74    41    41
   75    53    53
   76    87    87
   77    60    60
   78    39    39
   79    59    59
   80     8     8
   81    51    51
   82    20    20
   83     2     2
   84    42    42
   85    30    30
   86    18    18
   87    34    34
   88    27    27
   89    31    31
   90    23    23
   91    47    47
   92    75    75
   93    58    58
   94    13    13
   95    26    26
   96     1     1
   97    59    59
   98    93    93
   99    68    68
  100    86    86
1765
